c WARNING: for repeatability, setting FPU to use double precision
d VARIABLES            26911        
d CONSTRAINTS          96303        
c ============================[ Problem Statistics ]=============================
c |                                                                             |
c |  Number of variables:         26911                                         |
c |  Number of clauses:           96303                                         |
c |  Parse time:                   0.01 s                                       |
c |                                                                             |
c ============================[ Search Statistics ]==============================
c | Conflicts |          ORIGINAL         |          LEARNT          | Progress |
c |           |    Vars  Clauses Literals |    Limit  Clauses Lit/Cl |          |
c ===============================================================================
c |       100 |   16572    68409   168616 |    25083      100     32 | 38.419 % |
c |       250 |   16572    68409   168616 |    27591      250     45 | 38.419 % |
c |       475 |   16572    68409   168616 |    30350      475     55 | 38.419 % |
c |       812 |   16572    68409   168616 |    33385      812     63 | 38.419 % |
c |      1318 |   16572    68409   168616 |    36724     1318     69 | 38.419 % |
c |      2077 |   16572    68409   168616 |    40396     2077     65 | 38.419 % |
c |      3216 |   16572    68409   168616 |    44436     3216     77 | 38.419 % |
c |      4924 |   16572    68409   168616 |    48880     4924     86 | 38.419 % |
c |      7486 |   16572    68409   168616 |    53768     7486     87 | 38.419 % |
c |     11330 |   16572    68409   168616 |    59145    11330     92 | 38.419 % |
c |     17096 |   16572    68409   168616 |    65059    17096     94 | 38.419 % |
c |     25745 |   16572    68409   168616 |    71565    25745    103 | 38.419 % |
c |     38719 |   16572    68409   168616 |    78722    38719    103 | 38.419 % |
c |     58180 |   16572    68409   168616 |    86594    58180    102 | 38.419 % |
c |     87372 |   16572    68409   168616 |    95253    87372     99 | 38.419 % |
c |    131161 |   16572    68409   168616 |   104779    43325     83 | 38.419 % |
c |    196845 |   16572    68409   168616 |   115257   109009     76 | 38.419 % |
c |    295371 |   16572    68409   168616 |   126782   100421     57 | 38.419 % |
c |    443160 |   16363    66758   164663 |   139461    47322     48 | 39.196 % |
c ===============================================================================
c restarts              : 1022
c conflicts             : 450014         (4091 /sec)
c decisions             : 719549         (0.00 % random) (6542 /sec)
c propagations          : 326166275      (2965286 /sec)
c conflict literals     : 30656731       (51.19 % deleted)
d RESTARTS             1022
d FAILURES             450014       
d NODES                719549       
d BACKTRACKS           719549       
d PROPAGATIONS         326166275    
d NOGOODSIZE           68.12 
d MEMORY               83.00 
d TIME                 109.995 

s UNSATISFIABLE
